Minimize
  - 47 y_0 - 52 y_2 - 43 y_3 - 40 y_4 - 57 y_5 - 12 y_6 - 46 y_7 - 33 y_8
   - 31 y_9 + 19 x_0_4 + 88 x_0_6 + 31 x_0_9 + 86 x_1_3 + 80 x_1_4
   + 114 x_1_5 + 25 x_1_6 + 93 x_1_7 + 63 x_1_9 + 40 x_2_0 + 31 x_2_3
   + 14 x_2_5 + 53 x_2_9 + 65 x_3_4 + 45 x_3_5 + 66 x_3_6 + 42 x_3_8
   + 78 x_4_6 + 13 x_4_7 + 101 x_5_6 + 57 x_5_9 + 58 x_6_8 + 10 x_8_9
   + 10 x_8_9 + 10 x_8_9 + 10 x_8_9 + 10 x_8_9 + 10 x_8_9 + 10 x_8_9
   + 10 x_8_9 + 10 x_8_9 + 10 x_8_9 + 10 x_8_9 + 10 x_8_9 + 10 x_8_9
   + 10 x_8_9 + 10 x_8_9 + 10 x_8_9 + 10 x_8_9 + 10 x_8_9 + 10 x_8_9
   + 10 x_8_9 + 10 x_8_9 + 10 x_8_9 + 10 x_8_9 + 10 x_8_9 + 10 x_8_9
   + 10 x_8_9 + 10 x_8_9 + 10 x_8_9 + 10 x_8_9 + 10 x_8_9 + 10 x_8_9
   + 10 x_8_9 + 10 x_8_9 + 10 x_8_9 + 10 x_8_9 + 10 x_8_9 + 10 x_8_9
   + 10 x_8_9 + 10 x_8_9 + 10 x_8_9 + 10 x_8_9 + 10 x_8_9 + 10 x_8_9
   + 10 x_8_9 + 10 x_8_9 + 10 x_8_9 + 10 x_8_9 + 10 x_8_9 + 10 x_8_9
   + 10 x_8_9 + 10 x_8_9 + 10 x_8_9 + 10 x_8_9 + 10 x_8_9 + 10 x_8_9
   + 10 x_8_9 + 10 x_8_9 + 10 x_8_9 + 10 x_8_9 + 10 x_8_9 + 10 x_8_9
   + 10 x_8_9 + 10 x_8_9 + 10 x_8_9 + 10 x_8_9 + 10 x_8_9 + 10 x_8_9
   + 10 x_8_9 + 10 x_8_9 + 10 x_8_9 + 10 x_8_9 + 10 x_8_9 + 10 x_8_9
   + 10 x_8_9 + 10 x_8_9 + 10 x_8_9 + 10 x_8_9 + 10 x_8_9 + 10 x_8_9
   + 10 x_8_9 + 10 x_8_9 + 10 x_8_9 + 10 x_8_9 + 10 x_8_9 + 10 x_8_9
   + 10 x_8_9 + 10 x_8_9 + 10 x_8_9 + 10 x_8_9 + 10 x_8_9 + 10 x_8_9
   + 10 x_8_9 + 10 x_8_9 + 10 x_8_9 + 10 x_8_9 + 10 x_8_9 + 10 x_8_9
   + 10 x_8_9 + 10 x_8_9 + 10 x_8_9 + 10 x_8_9 + 10 x_8_9 + 10 x_8_9
   + 10 x_8_9 + 10 x_8_9 + 10 x_8_9 + 10 x_8_9 + 10 x_8_9 + 10 x_8_9
   + 10 x_8_9 + 10 x_8_9 + 10 x_8_9 + 10 x_8_9 + 10 x_8_9 + 10 x_8_9
   + 10 x_8_9 + 10 x_8_9 + 10 x_8_9 + 10 x_8_9 + 10 x_8_9 + 10 x_8_9
   + 10 x_8_9 + 10 x_8_9 + 10 x_8_9 + 10 x_8_9 + 10 x_8_9 + 10 x_8_9
   + 10 x_8_9 + 10 x_8_9 + 10 x_8_9 + 10 x_8_9 + 10 x_8_9 + 10 x_8_9
   + 10 x_8_9 + 10 x_8_9 + 10 x_8_9 + 10 x_8_9 + 10 x_8_9 + 10 x_8_9
   + 10 x_8_9 + 10 x_8_9 + 10 x_8_9 + 10 x_8_9 + 10 x_8_9 + 10 x_8_9
   + 10 x_8_9 + 10 x_8_9 + 10 x_8_9 + 10 x_8_9 + 10 x_8_9 + 10 x_8_9
   + 10 x_8_9 + 10 x_8_9 + 10 x_8_9 + 10 x_8_9 + 10 x_8_9 + 10 x_8_9
   + 10 x_8_9 + 10 x_8_9 + 10 x_8_9 + 10 x_8_9 + 10 x_8_9 + 10 x_8_9
   + 10 x_8_9 + 10 x_8_9 + 10 x_8_9 + 10 x_8_9 + 10 x_8_9 + 10 x_8_9
   + 10 x_8_9 + 10 x_8_9 + 10 x_8_9 + 10 x_8_9 + 10 x_8_9 + 10 x_8_9
   + 10 x_8_9 + 10 x_8_9 + 10 x_8_9 + 10 x_8_9 + 10 x_8_9 + 10 x_8_9
   + 10 x_8_9 + 10 x_8_9 + 10 x_8_9 + 10 x_8_9 + 10 x_8_9 + 10 x_8_9
   + 10 x_8_9 + 10 x_8_9 + 10 x_8_9 + 10 x_8_9 + 10 x_8_9 + 10 x_8_9
   + 10 x_8_9 + 10 x_8_9 + 10 x_8_9 + 10 x_8_9 + 10 x_8_9 + 10 x_8_9
   + 10 x_8_9 + 10 x_8_9 + 10 x_8_9 + 10 x_8_9 + 10 x_8_9 + 10 x_8_9
   + 10 x_8_9 + 10 x_8_9 + 10 x_8_9 + 361 Constant
Subject To
 c_0: y_2 = 1
 c_1_0: y_0 >= 1
 c_1_1: y_1 >= 1
 c_1_2: y_2 >= 1
 c_1_3: y_3 >= 1
 c_1_4: y_4 >= 1
 c_1_5: y_5 >= 1
 c_1_6: y_6 >= 1
 c_1_7: y_7 >= 1
 c_1_8: y_8 >= 1
 c_1_9: y_9 >= 1
 c_2_0: - 2 y_0 + x_0_4 + x_0_6 + x_0_9 + x_2_0 = 0
 c_2_1: - 2 y_1 + x_1_3 + x_1_4 + x_1_5 + x_1_6 + x_1_7 + x_1_9 = 0
 c_2_2: - 2 y_2 + x_2_0 + x_2_3 + x_2_5 + x_2_9 = 0
 c_2_3: - 2 y_3 + x_1_3 + x_2_3 + x_3_4 + x_3_5 + x_3_6 + x_3_8 = 0
 c_2_4: - 2 y_4 + x_0_4 + x_1_4 + x_3_4 + x_4_6 + x_4_7 = 0
 c_2_5: - 2 y_5 + x_1_5 + x_2_5 + x_3_5 + x_5_6 + x_5_9 = 0
 c_2_6: - 2 y_6 + x_0_6 + x_1_6 + x_3_6 + x_4_6 + x_5_6 + x_6_8 = 0
 c_2_7: - 2 y_7 + x_1_7 + x_4_7 = 0
 c_2_8: - 2 y_8 + x_3_8 + x_6_8 + 208 x_8_9 = 0
 c_2_9: - 2 y_9 + x_0_9 + x_1_9 + x_2_9 + x_5_9 + 208 x_8_9 = 0
Bounds
 Constant = 1
Binaries
 y_0 y_1 y_2 y_3 y_4 y_5 y_6 y_7 y_8 y_9 x_0_4 x_0_6 x_0_9 x_1_3 x_1_4
 x_1_5 x_1_6 x_1_7 x_1_9 x_2_0 x_2_3 x_2_5 x_2_9 x_3_4 x_3_5 x_3_6 x_3_8
 x_4_6 x_4_7 x_5_6 x_5_9 x_6_8 x_8_9 x_8_9 x_8_9 x_8_9 x_8_9 x_8_9 x_8_9
 x_8_9 x_8_9 x_8_9 x_8_9 x_8_9 x_8_9 x_8_9 x_8_9 x_8_9 x_8_9 x_8_9 x_8_9
 x_8_9 x_8_9 x_8_9 x_8_9 x_8_9 x_8_9 x_8_9 x_8_9 x_8_9 x_8_9 x_8_9 x_8_9
 x_8_9 x_8_9 x_8_9 x_8_9 x_8_9 x_8_9 x_8_9 x_8_9 x_8_9 x_8_9 x_8_9 x_8_9
 x_8_9 x_8_9 x_8_9 x_8_9 x_8_9 x_8_9 x_8_9 x_8_9 x_8_9 x_8_9 x_8_9 x_8_9
 x_8_9 x_8_9 x_8_9 x_8_9 x_8_9 x_8_9 x_8_9 x_8_9 x_8_9 x_8_9 x_8_9 x_8_9
 x_8_9 x_8_9 x_8_9 x_8_9 x_8_9 x_8_9 x_8_9 x_8_9 x_8_9 x_8_9 x_8_9 x_8_9
 x_8_9 x_8_9 x_8_9 x_8_9 x_8_9 x_8_9 x_8_9 x_8_9 x_8_9 x_8_9 x_8_9 x_8_9
 x_8_9 x_8_9 x_8_9 x_8_9 x_8_9 x_8_9 x_8_9 x_8_9 x_8_9 x_8_9 x_8_9 x_8_9
 x_8_9 x_8_9 x_8_9 x_8_9 x_8_9 x_8_9 x_8_9 x_8_9 x_8_9 x_8_9 x_8_9 x_8_9
 x_8_9 x_8_9 x_8_9 x_8_9 x_8_9 x_8_9 x_8_9 x_8_9 x_8_9 x_8_9 x_8_9 x_8_9
 x_8_9 x_8_9 x_8_9 x_8_9 x_8_9 x_8_9 x_8_9 x_8_9 x_8_9 x_8_9 x_8_9 x_8_9
 x_8_9 x_8_9 x_8_9 x_8_9 x_8_9 x_8_9 x_8_9 x_8_9 x_8_9 x_8_9 x_8_9 x_8_9
 x_8_9 x_8_9 x_8_9 x_8_9 x_8_9 x_8_9 x_8_9 x_8_9 x_8_9 x_8_9 x_8_9 x_8_9
 x_8_9 x_8_9 x_8_9 x_8_9 x_8_9 x_8_9 x_8_9 x_8_9 x_8_9 x_8_9 x_8_9 x_8_9
 x_8_9 x_8_9 x_8_9 x_8_9 x_8_9 x_8_9 x_8_9 x_8_9 x_8_9 x_8_9 x_8_9 x_8_9
 x_8_9 x_8_9 x_8_9 x_8_9 x_8_9 x_8_9 x_8_9 x_8_9 x_8_9 x_8_9 x_8_9 x_8_9
 x_8_9 x_8_9 x_8_9 x_8_9 x_8_9 x_8_9 x_8_9 x_8_9 x_8_9
End
